Welcome to the CBC MILP Solver 
Version: 2.10.10 
Build Date: Apr 19 2023 

command line - cbc /tmp/9c75ddf1634d4663aa857b3db3e7a1b0-pulp.mps max sec 15 timeMode elapsed branch printingOptions all solution /tmp/9c75ddf1634d4663aa857b3db3e7a1b0-pulp.sol (default strategy 1)
At line 2 NAME          MODEL
At line 3 ROWS
At line 30583 COLUMNS
At line 111447 RHS
At line 142026 BOUNDS
At line 150427 ENDATA
Problem MODEL has 30578 rows, 8400 columns and 80085 elements
Coin0008I MODEL read with 0 errors
seconds was changed from 1e+100 to 15
Option for timeMode changed from cpu to elapsed
Presolve 0 (-30578) rows, 0 (-8400) columns and 0 (-80085) elements
Empty problem - 0 rows, 0 columns and 0 elements
Optimal - objective value 11
After Postsolve, objective 11, infeasibilities - dual 0 (0), primal 0 (0)
Optimal objective 11 - 0 iterations time 0.082, Presolve 0.08
Option for printingOptions changed from normal to all
Total time (CPU seconds):       0.33   (Wallclock seconds):       0.12

Welcome to the CBC MILP Solver 
Version: 2.10.10 
Build Date: Apr 19 2023 

command line - cbc /tmp/34895f90ae25495e86c13191bb41abb8-pulp.mps max sec 15 timeMode elapsed branch printingOptions all solution /tmp/34895f90ae25495e86c13191bb41abb8-pulp.sol (default strategy 1)
At line 2 NAME          MODEL
At line 3 ROWS
At line 30583 COLUMNS
At line 128247 RHS
At line 158826 BOUNDS
At line 167227 ENDATA
Problem MODEL has 30578 rows, 8400 columns and 80085 elements
Coin0008I MODEL read with 0 errors
seconds was changed from 1e+100 to 15
Option for timeMode changed from cpu to elapsed
Continuous objective value is 11 - 0.02 seconds
Cgl0002I 4131 variables fixed
Cgl0004I processed model has 0 rows, 0 columns (0 integer (0 of which binary)) and 0 elements
Cbc3007W No integer variables - nothing to do
Cuts at root node changed objective from 11 to 1.79769e+308
Probing was tried 0 times and created 0 cuts of which 0 were active after adding rounds of cuts (0.000 seconds)
Gomory was tried 0 times and created 0 cuts of which 0 were active after adding rounds of cuts (0.000 seconds)
Knapsack was tried 0 times and created 0 cuts of which 0 were active after adding rounds of cuts (0.000 seconds)
Clique was tried 0 times and created 0 cuts of which 0 were active after adding rounds of cuts (0.000 seconds)
MixedIntegerRounding2 was tried 0 times and created 0 cuts of which 0 were active after adding rounds of cuts (0.000 seconds)
FlowCover was tried 0 times and created 0 cuts of which 0 were active after adding rounds of cuts (0.000 seconds)
TwoMirCuts was tried 0 times and created 0 cuts of which 0 were active after adding rounds of cuts (0.000 seconds)
ZeroHalf was tried 0 times and created 0 cuts of which 0 were active after adding rounds of cuts (0.000 seconds)

Result - Optimal solution found

Objective value:                11.00000000
Enumerated nodes:               0
Total iterations:               0
Time (CPU seconds):             0.10
Time (Wallclock seconds):       0.12

Option for printingOptions changed from normal to all
Total time (CPU seconds):       0.43   (Wallclock seconds):       0.24

